Gurobi Optimizer version 9.1.2 build v9.1.2rc0 (linux64)
Thread count: 36 physical cores, 72 logical processors, using up to 32 threads
Optimize a model with 12 rows, 57 columns and 590 nonzeros
Model fingerprint: 0xf32eec78
Model has 47 quadratic constraints
Coefficient statistics:
  Matrix range     [2e-05, 3e+00]
  QMatrix range    [1e+00, 1e+00]
  QLMatrix range   [1e+00, 1e+00]
  Objective range  [8e-03, 7e-01]
  Bounds range     [1e+00, 1e+00]
  RHS range        [1e+00, 1e+00]
Presolve removed 9 rows and 0 columns

Continuous model is non-convex -- solving as a MIP.

Presolve removed 9 rows and 0 columns
Presolve time: 0.00s
Presolved: 189 rows, 57 columns, 443 nonzeros
Presolved model has 47 bilinear constraint(s)
Variable types: 57 continuous, 0 integer (0 binary)

Root relaxation: objective -1.743721e+00, 44 iterations, 0.00 seconds

    Nodes    |    Current Node    |     Objective Bounds      |     Work
 Expl Unexpl |  Obj  Depth IntInf | Incumbent    BestBd   Gap | It/Node Time

     0     0   -1.74372    0   38          -   -1.74372      -     -    0s
H    0     0                       0.6147548   -1.74372   384%     -    0s
     0     0   -1.64739    0    1    0.61475   -1.64739   368%     -    0s
H    0     0                      -1.6450460   -1.64739  0.14%     -    0s
     0     0     cutoff    0        -1.64505   -1.64505  0.00%     -    0s

Cutting planes:
  RLT: 25
  BQP: 3

Explored 1 nodes (76 simplex iterations) in 0.01 seconds
Thread count was 32 (of 72 available processors)

Solution count 2: -1.64505 0.614755 
No other solutions better than -1.64505

Optimal solution found (tolerance 1.00e-04)
Best objective -1.645045978473e+00, best bound -1.645045978473e+00, gap 0.0000%

User-callback calls 78, time in user-callback 0.00 sec
Gurobi Optimizer version 9.1.2 build v9.1.2rc0 (linux64)
Thread count: 36 physical cores, 72 logical processors, using up to 32 threads
Optimize a model with 24 rows, 120 columns and 2480 nonzeros
Model fingerprint: 0x465dc767
Model has 100 quadratic constraints
Coefficient statistics:
  Matrix range     [8e-06, 4e+00]
  QMatrix range    [1e+00, 1e+00]
  QLMatrix range   [1e+00, 1e+00]
  Objective range  [8e-03, 2e+00]
  Bounds range     [1e+00, 1e+00]
  RHS range        [1e+00, 1e+00]
Presolve removed 17 rows and 0 columns

Continuous model is non-convex -- solving as a MIP.

Presolve removed 17 rows and 0 columns
Presolve time: 0.00s
Presolved: 407 rows, 120 columns, 1231 nonzeros
Presolved model has 100 bilinear constraint(s)
Variable types: 120 continuous, 0 integer (0 binary)

Root relaxation: objective -1.082080e+01, 128 iterations, 0.00 seconds

    Nodes    |    Current Node    |     Objective Bounds      |     Work
 Expl Unexpl |  Obj  Depth IntInf | Incumbent    BestBd   Gap | It/Node Time

     0     0  -10.82080    0  100          -  -10.82080      -     -    0s
H    0     0                       1.6758231  -10.82080   746%     -    0s
     0     0   -7.60790    0   90    1.67582   -7.60790   554%     -    0s
H    0     0                       0.5493865   -7.60790  1485%     -    0s
     0     0   -7.60092    0   90    0.54939   -7.60092  1484%     -    0s
     0     0   -6.54752    0   90    0.54939   -6.54752  1292%     -    0s
H    0     0                      -0.5358945   -6.54752  1122%     -    0s
     0     0   -6.53071    0   90   -0.53589   -6.53071  1119%     -    0s
     0     0   -6.35282    0   90   -0.53589   -6.35282  1085%     -    0s
H    0     0                      -0.7309758   -6.35282   769%     -    0s
     0     0   -6.34458    0   90   -0.73098   -6.34458   768%     -    0s
     0     0   -6.27712    0   90   -0.73098   -6.27712   759%     -    0s
     0     0   -6.27298    0   90   -0.73098   -6.27298   758%     -    0s
     0     0   -6.23659    0   90   -0.73098   -6.23659   753%     -    0s
     0     0   -6.23465    0   90   -0.73098   -6.23465   753%     -    0s
     0     0   -6.22459    0   90   -0.73098   -6.22459   752%     -    0s
     0     0   -6.22379    0   90   -0.73098   -6.22379   751%     -    0s
     0     0   -6.21822    0   90   -0.73098   -6.21822   751%     -    0s
H    0     0                      -2.0320057   -6.21822   206%     -    0s
H    0     0                      -2.4424126   -6.21822   155%     -    0s
H    0     0                      -2.6037133   -6.21822   139%     -    0s
     0     2   -6.21822    0   90   -2.60371   -6.21822   139%     -    0s
* 1171  1208              43      -3.5389082   -5.52120  56.0%  30.9    0s
* 1193  1208              37      -4.4080629   -5.52120  25.3%  30.6    0s
* 1278  1210              25      -4.6110088   -5.45132  18.2%  29.6    0s
* 1279  1210              26      -4.6113264   -5.45132  18.2%  29.6    0s
* 1280  1210              26      -4.6113338   -5.45132  18.2%  29.6    0s
* 1581  1256              28      -4.7988663   -5.40049  12.5%  28.9    0s
* 1902  1471              22      -4.9988758   -5.40049  8.03%  28.3    0s
* 1903  1471              22      -4.9988763   -5.40049  8.03%  28.3    0s
* 2027  1471              25      -5.0037639   -5.40049  7.93%  27.9    0s
* 2227  1383              21      -5.0128507   -5.13741  2.48%  26.7    0s
* 2335  1383              20      -5.0319704   -5.05751  0.51%  26.0    0s
* 2397  1383              21      -5.0397954   -5.05751  0.35%  25.6    0s
* 2675   963              27      -5.0495606   -5.05728  0.15%  23.7    0s
* 2676   963              27      -5.0526496   -5.05728  0.09%  23.7    0s
* 2753   963              21      -5.0556261   -5.05728  0.03%  23.4    0s
* 3212   356              20      -5.0572183   -5.05727  0.00%  20.2    0s
* 3214   356              21      -5.0572221   -5.05727  0.00%  20.2    0s
* 3236   356              21      -5.0572586   -5.05726  0.00%  20.0    0s

Cutting planes:
  RLT: 80
  BQP: 16
  PSD: 21

Explored 3879 nodes (65948 simplex iterations) in 0.81 seconds
Thread count was 32 (of 72 available processors)

Solution count 10: -5.05726 -5.05722 -5.05563 ... -4.99888
No other solutions better than -5.05726

Optimal solution found (tolerance 1.00e-04)
Best objective -5.057258596478e+00, best bound -5.057258596478e+00, gap 0.0000%

User-callback calls 8078, time in user-callback 0.00 sec



objective value: -5.057258596478495
objective bound: -5.057258596478495
x_opt: [0.0, 1.0, 1.0, 0.4512624031775144, 1.0, 0.0, 0.07440911739482674, 0.0, 0.1789385025569172, 1.0, 0.0, 0.0026198179707324592, 1.0, 1.0, 1.0, 0.0, 0.0, 0.0, 0.0, 0.0]
GUROBI solution time: 0.8113749027252197




